1151.0 13351.0 3383.0 
1156.0 13361.0 3366.0 
1189.0 13247.0 2807.0 
1135.0 13680.0 3604.0 
1159.0 13368.0 3298.0 
1179.0 13282.0 3231.0 
1137.0 13601.0 3531.0 
1149.0 13387.0 3429.0 
1149.0 13389.0 3348.0 
1154.0 13371.0 3089.0 
1151.0 13351.0 3383.0 
1119.0 13803.0 3806.0 
1137.0 13601.0 3531.0 
1179.0 13282.0 3231.0 
1183.0 13231.0 3287.0 
1153.0 13362.0 3327.0 
1171.0 13331.0 3484.0 
1243.0 13227.0 2997.0 
1111.0 13844.0 3734.0 
1150.0 13381.0 3287.0 
1190.0 13208.0 3264.0 
1159.0 13336.0 3301.0 
1138.0 13472.0 3224.0 
1175.0 13300.0 2874.0 
1143.0 13390.0 3141.0 
1154.0 13371.0 3089.0 
1131.0 13703.0 3875.0 
1135.0 13680.0 3604.0 
